
Gurobi 9.1.0 (win64) logging started Tue Dec 15 14:47:49 2020

Changed value of parameter LogFile to logs/iteration12
   Prev:   Default: 
Gurobi Optimizer version 9.1.0 build v9.1.0rc0 (win64)
Thread count: 4 physical cores, 8 logical processors, using up to 8 threads
Optimize a model with 136 rows, 686 columns and 2601 nonzeros
Model fingerprint: 0x465fb442
Coefficient statistics:
  Matrix range     [1e+00, 1e+00]
  Objective range  [9e+02, 3e+03]
  Bounds range     [0e+00, 0e+00]
  RHS range        [1e+00, 1e+00]
Presolve removed 12 rows and 39 columns
Presolve time: 0.00s
Presolved: 124 rows, 647 columns, 2562 nonzeros

Iteration    Objective       Primal Inf.    Dual Inf.      Time
       0    1.8019667e+04   1.240000e+02   0.000000e+00      0s
     307    8.6570375e+04   0.000000e+00   0.000000e+00      0s

Solved in 307 iterations and 0.01 seconds
Optimal objective  8.657037500e+04

Solutionx[24] 1.000000 
x[27] 0.500000 
x[64] 1.000000 
x[70] 1.000000 
x[72] 1.000000 
x[76] 1.000000 
x[77] 1.000000 
x[95] 0.500000 
x[118] 1.000000 
x[124] 1.000000 
x[127] 1.000000 
x[130] 1.000000 
x[131] 1.000000 
x[132] 1.000000 
x[134] 1.000000 
x[261] 0.250000 
x[264] 0.500000 
x[566] 0.500000 
x[728] 0.500000 
x[1739] 0.250000 
x[1926] 0.250000 
x[2456] 0.250000 
x[2915] 0.500000 
x[3178] 0.250000 
x[4760] 0.875000 
x[10635] 0.125000 
x[19863] 0.500000 
x[21791] 0.500000 
x[9961] 0.500000 
x[10828] 0.500000 
x[3365] 0.500000 
x[13128] 0.500000 
x[18798] 1.000000 
x[30408] 1.000000 
x[10403] 1.000000 
x[12310] 1.000000 
x[21081] 1.000000 
x[12011] 1.000000 
x[8183] 1.000000 
x[5984] 0.500000 
x[6136] 1.000000 
x[23024] 0.500000 
x[31320] 0.500000 
x[20827] 0.500000 
x[17042] 0.250000 
x[28690] 0.500000 
x[3629] 0.250000 
x[27762] 0.125000 
x[2214] 0.375000 
x[4941] 1.000000 
x[10384] 1.000000 
x[26767] 1.000000 
x[13413] 0.500000 
x[3222] 0.500000 
x[7217] 0.500000 
x[20507] 0.500000 
x[13217] 1.000000 
x[694] 0.125000 
x[9053] 0.875000 
x[9590] 1.000000 
x[14912] 0.125000 
x[18512] 0.125000 
x[19311] 1.000000 
x[19943] 0.500000 
x[23268] 1.000000 
x[32312] 0.250000 
x[29820] 0.500000 
x[22748] 0.500000 
x[7369] 1.000000 
x[921] 0.500000 
x[17474] 0.250000 
x[13814] 0.500000 
x[15685] 0.250000 
